c dimacs format for SC verification
p cnf 164 242
1 0
2 0
3 0
4 0
5 0
6 0
7 0
8 0
9 0
10 0
11 0
12 0
13 0
14 0
15 0
16 0
17 0
18 0
19 0
20 0
21 0
22 0
23 0
24 0
25 0
26 0
27 0
28 0
29 0
30 0
31 0
32 0
33 0
34 0
-2 -26 27 0
-4 -19 21 0
-19 -27 26 0
-21 -2 4 0
-26 -21 19 0
-27 -4 2 0
2 19 0
4 26 0
7 15 0
15 7 0
19 2 0
21 27 0
26 4 0
27 21 0
-2 -10 35 0 
-4 -30 36 0 
-7 -11 37 0 
-15 -23 38 0 
-15 -34 39 0 
-19 -22 40 0 
-21 -30 41 0 
-26 -22 42 0 
-27 -10 43 0 
-1 44 0
-3 45 0
-5 46 0
-6 47 0
-8 48 0
-9 49 0
-12 50 0
-13 51 0
-14 52 0
-16 53 0
-17 54 0
-18 55 0
-20 56 0
-24 57 0
-25 58 0
-28 59 0
-29 60 0
-31 61 0
-32 62 0
-10 63 0
-11 64 0
-22 65 0
-23 66 0
-30 67 0
-33 68 0
-34 69 0
-2 70 0
-4 71 0
-7 72 0
-15 73 0
-19 74 0
-21 75 0
-26 76 0
-27 77 0
-35 78 0
-36 79 0
-37 80 0
-38 81 0
-39 82 0
-40 83 0
-41 84 0
-42 85 0
-43 86 0
-44 -50 45 0
-44 -51 46 0
-44 -52 47 0
-44 -80 87 0
-45 -57 46 0
-45 -58 47 0
-45 -81 88 0
-46 -61 47 0
-46 -84 74 0
-48 -56 49 0
-48 -63 89 0
-48 -70 90 0
-48 -77 91 0
-49 -83 48 0
-49 -85 91 0
-50 -57 51 0
-50 -58 52 0
-50 -81 92 0
-51 -61 52 0
-51 -79 93 0
-51 -84 94 0
-53 -59 54 0
-53 -60 55 0
-53 -67 95 0
-53 -71 96 0
-53 -75 97 0
-54 -62 55 0
-54 -68 98 0
-56 -85 77 0
-57 -61 58 0
-57 -79 99 0
-57 -84 100 0
-59 -62 60 0
-59 -68 101 0
-60 -82 102 0
-62 -82 103 0
-63 -78 70 0
-63 -86 77 0
-64 -50 104 0
-64 -51 95 0
-64 -52 98 0
-64 -80 72 0
-65 -83 74 0
-65 -85 76 0
-66 -57 105 0
-66 -58 106 0
-66 -81 73 0
-67 -61 101 0
-67 -79 71 0
-67 -84 75 0
-69 -82 73 0
-70 -44 107 0
-70 -45 108 0
-70 -46 109 0
-70 -47 110 0
-70 -65 56 0
-70 -76 77 0
-71 -44 111 0
-71 -45 112 0
-71 -46 67 0
-71 -47 101 0
-71 -65 113 0
-71 -74 75 0
-72 -48 97 0
-72 -49 114 0
-72 -66 104 0
-72 -69 55 0
-73 -53 91 0
-73 -54 115 0
-73 -55 69 0
-73 -64 116 0
-74 -56 65 0
-74 -63 117 0
-74 -77 76 0
-75 -56 113 0
-75 -63 118 0
-75 -70 71 0
-76 -59 119 0
-76 -60 120 0
-76 -67 46 0
-76 -75 74 0
-77 -59 121 0
-77 -60 122 0
-77 -67 109 0
-77 -71 70 0
-78 -44 123 0
-78 -45 124 0
-78 -46 125 0
-78 -47 126 0
-78 -65 127 0
-78 -74 128 0
-78 -76 86 0
-79 -44 129 0
-79 -45 130 0
-79 -47 61 0
-79 -65 131 0
-79 -74 84 0
-79 -76 132 0
-80 -48 94 0
-80 -49 133 0
-80 -66 50 0
-80 -69 134 0
-80 -73 92 0
-81 -53 135 0
-81 -54 136 0
-81 -55 137 0
-81 -64 138 0
-81 -72 139 0
-82 -53 140 0
-82 -54 141 0
-82 -64 142 0
-82 -72 143 0
-83 -63 144 0
-83 -70 145 0
-83 -77 85 0
-84 -56 131 0
-84 -63 146 0
-84 -70 79 0
-84 -77 132 0
-85 -59 147 0
-85 -60 148 0
-85 -67 149 0
-85 -71 145 0
-85 -75 83 0
-86 -59 150 0
-86 -60 151 0
-86 -67 125 0
-86 -71 78 0
-86 -75 128 0
-152 0
-153 0
-154 0
-155 0
-156 0
-157 0
-158 0
-159 0
-160 0
-161 0
-162 0
-163 0
-164 0
